c read Graph
c width = 2
c time = 328 ms
c width = 2
c time = 4053 ms
s td 10 3 12
b 1 1 2 8
b 2 2 3 9
b 3 3 4 10
b 4 4 5 11
b 5 5 6 12
b 6 5 11 12
b 7 4 10 11
b 8 3 9 10
b 9 2 8 9
b 10 1 7 8
1 10
1 9
2 9
2 8
3 8
3 7
4 7
4 6
5 6
